experiments/benchmarks/random/17_15_14.in
49 19
1 -6 8 -10 -10 0 0 -5 10 9 2 -8 -7 -5 0 -3 -6 -6 0
1 0 0 6 0 0 10 0 0 0 0 0 0 -2 0 -5 0 0 -2
1 0 0 -7 5 8 -8 0 -2 0 5 0 -4 -4 -1 -5 0 5 -3
1 0 0 0 -1 0 5 -10 1 -9 0 0 0 -8 0 0 0 5 -8
1 1 0 0 9 0 6 0 0 4 2 -1 -3 5 -8 -6 5 1 -9
1 -7 -2 0 0 6 0 0 3 0 0 5 7 0 0 -2 0 0 2
1 0 0 0 0 0 3 0 0 0 1 0 0 0 0 0 0 0 -7
1 -10 0 2 -10 8 0 0 6 0 -7 5 0 -4 0 0 2 5 2
1 8 3 0 0 0 4 3 -3 0 0 2 0 0 -7 -9 0 7 1
1 -7 -10 6 0 -1 3 -8 3 6 0 -7 -1 0 0 -5 0 -10 4
1 0 0 0 -4 0 0 0 0 0 8 -9 0 0 0 0 0 -8 -1
1 7 8 -4 0 0 0 -4 9 0 9 7 -6 3 0 -2 -4 -3 -9
1 -4 -3 -3 1 6 4 8 1 -1 -7 0 -4 -9 0 0 0 -4 -6
1 0 -5 9 0 -6 -9 0 0 2 5 -7 3 0 -1 -8 0 4 6
1 0 -5 0 0 0 -5 -10 2 0 0 0 0 0 4 -2 -1 0 1
1 1 0 0 0 0 0 0 0 0 0 0 0 0 0 0 0 0 8
1 0 1 0 0 0 0 0 0 0 0 0 0 0 0 0 0 0 8
1 0 0 1 0 0 0 0 0 0 0 0 0 0 0 0 0 0 8
1 0 0 0 1 0 0 0 0 0 0 0 0 0 0 0 0 0 8
1 0 0 0 0 1 0 0 0 0 0 0 0 0 0 0 0 0 8
1 0 0 0 0 0 1 0 0 0 0 0 0 0 0 0 0 0 8
1 0 0 0 0 0 0 1 0 0 0 0 0 0 0 0 0 0 8
1 0 0 0 0 0 0 0 1 0 0 0 0 0 0 0 0 0 8
1 0 0 0 0 0 0 0 0 1 0 0 0 0 0 0 0 0 8
1 0 0 0 0 0 0 0 0 0 1 0 0 0 0 0 0 0 8
1 0 0 0 0 0 0 0 0 0 0 1 0 0 0 0 0 0 8
1 0 0 0 0 0 0 0 0 0 0 0 1 0 0 0 0 0 8
1 0 0 0 0 0 0 0 0 0 0 0 0 1 0 0 0 0 8
1 0 0 0 0 0 0 0 0 0 0 0 0 0 1 0 0 0 8
1 0 0 0 0 0 0 0 0 0 0 0 0 0 0 1 0 0 8
1 0 0 0 0 0 0 0 0 0 0 0 0 0 0 0 1 0 8
1 0 0 0 0 0 0 0 0 0 0 0 0 0 0 0 0 1 8
1 -1 0 0 0 0 0 0 0 0 0 0 0 0 0 0 0 0 7
1 0 -1 0 0 0 0 0 0 0 0 0 0 0 0 0 0 0 7
1 0 0 -1 0 0 0 0 0 0 0 0 0 0 0 0 0 0 7
1 0 0 0 -1 0 0 0 0 0 0 0 0 0 0 0 0 0 7
1 0 0 0 0 -1 0 0 0 0 0 0 0 0 0 0 0 0 7
1 0 0 0 0 0 -1 0 0 0 0 0 0 0 0 0 0 0 7
1 0 0 0 0 0 0 -1 0 0 0 0 0 0 0 0 0 0 7
1 0 0 0 0 0 0 0 -1 0 0 0 0 0 0 0 0 0 7
1 0 0 0 0 0 0 0 0 -1 0 0 0 0 0 0 0 0 7
1 0 0 0 0 0 0 0 0 0 -1 0 0 0 0 0 0 0 7
1 0 0 0 0 0 0 0 0 0 0 -1 0 0 0 0 0 0 7
1 0 0 0 0 0 0 0 0 0 0 0 -1 0 0 0 0 0 7
1 0 0 0 0 0 0 0 0 0 0 0 0 -1 0 0 0 0 7
1 0 0 0 0 0 0 0 0 0 0 0 0 0 -1 0 0 0 7
1 0 0 0 0 0 0 0 0 0 0 0 0 0 0 -1 0 0 7
1 0 0 0 0 0 0 0 0 0 0 0 0 0 0 0 -1 0 7
1 0 0 0 0 0 0 0 0 0 0 0 0 0 0 0 0 -1 7
